11
0 91 81 59 31 27 17 85 17 2 90 
27 0 97 35 77 78 87 15 81 6 70 
35 17 0 48 93 7 60 27 75 70 37 
9 77 99 0 84 59 51 95 83 87 44 
3 84 68 57 0 93 58 75 25 78 25 
89 14 79 55 17 0 75 40 61 28 57 
72 95 74 2 39 71 0 58 32 24 87 
45 58 27 49 59 18 54 0 47 54 55 
70 63 63 75 60 28 62 16 0 96 33 
22 94 54 25 13 16 36 24 13 0 68 
100 66 3 28 66 42 87 62 95 40 0 
